coords = array2d(1..71, 1..2, [122, 556, 947, 844, 509, 661, 734, 16, 95, 531,
    245, 217, 170, 182, 243, 286, 104, 826, 230, 517, 896, 416, 143,
    828, 668, 339, 995, 312, 806, 813, 10, 814, 545, 550, 245, 809,
    689, 625, 453, 308, 962, 938, 286, 370, 796, 270, 587, 207, 231,
    315, 132, 984, 981, 634, 464, 218, 467, 631, 850, 1000, 799, 886,
    307, 778, 682, 834, 654, 723, 593, 641, 979, 947, 629, 95, 383,
    257, 752, 674, 657, 379, 607, 109, 348, 474, 832, 850, 586, 647,
    189, 628, 742, 902, 618, 494, 351, 899, 348, 295, 752, 42, 798,
    901, 55, 250, 653, 961, 995, 722, 32, 294, 658, 572, 956, 292,
    791, 152, 759, 634, 262, 248, 865, 418, 586, 323, 646, 342, 540,
    464, 454, 181, 115, 910, 278, 722, 485, 196, 729, 384, 912, 429,
    936, 221]);

n = 71;

